NAME : LPS-n9-m308
COMMENT : (Lartu-Peter-Santi Plot, instance 2708 out of 39200. 9 customers.)
TYPE : CVRP
DIMENSION : 9
EDGE_WEIGHT_TYPE : EUC_2D
CAPACITY : 131
NODE_COORD_SECTION
 1 83 19
 2 2 45
 3 22 57
 4 92 26
 5 78 61
 6 30 33
 7 16 9
 8 68 69
 9 58 97
DEMAND_SECTION
1 0
2 14
3 55
4 116
5 96
6 82
7 27
8 82
9 86
DEPOT_SECTION
 1
 -1
EOF
